c Random generated cnf formula, satisfiable: true
p cnf 10 50
3 -5 -10 0
-8 2 10 0
1 6 9 0
9 -5 -10 0
-4 -10 5 0
-2 -10 -4 0
-7 -2 -9 0
-6 -1 10 0
6 -5 -4 0
10 -3 7 0
7 -3 -8 0
4 -7 -9 0
-6 -4 -1 0
-7 -10 -5 0
-9 -1 -8 0
7 2 -10 0
-9 -5 10 0
-6 -5 -7 0
6 10 5 0
5 -1 -9 0
7 6 8 0
-9 -10 -6 0
5 -7 -6 0
2 -1 -4 0
-2 -10 -3 0
2 -5 6 0
8 -2 1 0
7 4 -10 0
-4 -9 -3 0
4 -2 1 0
-6 -9 7 0
7 2 9 0
6 -9 2 0
-5 4 -9 0
-2 8 -6 0
-4 -5 6 0
-2 5 -9 0
5 7 -4 0
6 -4 -3 0
-4 9 6 0
6 -10 -7 0
-5 -8 -10 0
-7 -5 -4 0
6 1 -7 0
-5 8 7 0
-1 -9 -8 0
-6 7 -4 0
9 3 10 0
7 -4 -1 0
6 -9 -5 0
